
List of user-set options:

                                    Name   Value                used
                           linear_solver = ma57                  yes
                  ma57_automatic_scaling = yes                   yes
                                max_iter = 10000                 yes
                             mu_strategy = adaptive              yes
                             output_file = DynamicOptimization_lMtildeState_vAIPOPTinfo.txt  yes
                             print_level = 5                     yes
                      print_user_options = yes                   yes
                                     tol = 1e-006                yes
This is Ipopt version 3.11.0, running with linear solver ma57.

Number of nonzeros in equality constraint Jacobian...:    37171
Number of nonzeros in inequality constraint Jacobian.:     7596
Number of nonzeros in Lagrangian Hessian.............:    13860

Total number of variables............................:     8209
                     variables with only lower bounds:        0
                variables with lower and upper bounds:     8209
                     variables with only upper bounds:        0
Total number of equality constraints.................:     6301
Total number of inequality constraints...............:     3799
        inequality constraints with only lower bounds:     1890
   inequality constraints with lower and upper bounds:       19
        inequality constraints with only upper bounds:     1890

iter    objective    inf_pr   inf_du lg(mu)  ||d||  lg(rg) alpha_du alpha_pr  ls
   0 9.9999900e-003 1.65e+003 1.75e+000   0.0 0.00e+000    -  0.00e+000 0.00e+000   0
   1 6.4216306e-002 2.13e+004 3.48e+003   0.6 1.62e+001    -  7.18e-001 1.12e-001f  2
   2 9.2542464e-002 2.04e+004 6.96e+003   0.6 1.04e+001   2.0 9.31e-002 4.47e-002h  2
   3 3.5569945e-001 1.95e+004 1.72e+004   0.6 6.03e+000   2.4 2.00e-002 4.36e-002h  3
   4 1.4222718e+000 1.75e+004 1.83e+005   0.6 9.97e+000   2.9 1.81e-001 1.07e-001h  1
   5 1.4761319e+000 1.75e+004 1.82e+005   0.6 1.57e+001   3.3 9.35e-002 3.43e-003h  1
   6 2.4572609e+000 1.65e+004 3.66e+005   0.6 1.74e+001   3.7 2.04e-001 5.63e-002h  2
   7 3.6184406e+000 1.57e+004 1.09e+006   0.6 2.14e+001   4.1 6.28e-002 5.24e-002H  1
   8 3.6387734e+000 1.57e+004 1.09e+006   0.6 7.62e+001   4.6 2.55e-002 6.80e-004h  1
   9 3.6355855e+000 1.57e+004 1.08e+006   0.6 8.18e+001   4.1 2.09e-002 6.22e-004h  1
iter    objective    inf_pr   inf_du lg(mu)  ||d||  lg(rg) alpha_du alpha_pr  ls
  10 3.6456924e+000 1.56e+004 1.59e+006   0.6 1.30e+002   4.5 2.97e-002 3.44e-004h  1
  11 4.6640039e+000 1.56e+004 1.59e+006   0.6 1.35e+002   4.0 1.34e-003 9.55e-004H  1
  12 6.1661476e+000 1.51e+004 4.37e+008   0.6 1.36e+002   4.5 1.15e-002 3.19e-002h  1
  13 6.9528106e+000 1.48e+004 1.67e+010   0.6 1.45e+002   4.9 1.44e-003 2.59e-002f  1
  14 7.1721166e+000 1.47e+004 1.66e+010   0.6 1.28e+002   4.4 6.65e-003 6.14e-003h  1
  15 7.1755878e+000 1.47e+004 1.66e+010   0.6 1.13e+002   4.8 3.83e-002 6.98e-005h  1
  16r7.1755878e+000 1.47e+004 1.00e+003   2.5 0.00e+000   4.4 0.00e+000 3.45e-007R  4
  17r7.2772580e+000 6.64e+003 9.99e+002  -3.8 2.03e+005    -  1.01e-003 1.35e-003f  1
  18 7.5599655e+000 6.55e+003 3.19e+002   0.1 2.13e+002    -  3.00e-002 1.30e-002f  1
  19 7.5636619e+000 6.55e+003 4.20e+002   0.1 2.04e+002    -  2.17e-002 2.16e-004h  1
iter    objective    inf_pr   inf_du lg(mu)  ||d||  lg(rg) alpha_du alpha_pr  ls
  20 7.5712426e+000 6.55e+003 2.16e+006   1.6 7.48e+001   3.9 3.84e-001 3.08e-004h  1
  21 7.5948950e+000 6.54e+003 1.83e+007   3.3 6.04e+002   3.4 1.60e-002 6.15e-004h  1
  22 7.6169171e+000 6.54e+003 1.55e+008   3.3 6.28e+002   2.9 1.00e+000 5.64e-004h  1
  23 7.6965565e+000 6.52e+003 1.55e+008   3.8 1.38e+003    -  7.36e-003 3.06e-003f  1
  24 7.7428370e+000 6.51e+003 1.55e+008   3.8 2.74e+003    -  4.54e-003 1.71e-003f  1
  25 7.7850100e+000 6.50e+003 1.59e+008   3.8 2.03e+003    -  8.63e-003 1.54e-003f  1
  26 7.7878746e+000 6.50e+003 1.92e+008   3.8 1.29e+003    -  1.02e-002 1.09e-004h  1
  27 7.8272873e+000 6.49e+003 2.92e+009   3.8 1.53e+003    -  3.57e-002 1.56e-003h  1
  28r7.8272873e+000 6.49e+003 1.00e+003   3.8 0.00e+000    -  0.00e+000 4.30e-007R  5
  29r8.5234202e+000 2.37e+003 8.11e+002  -2.4 2.49e+003    -  2.13e-001 6.19e-002f  1
iter    objective    inf_pr   inf_du lg(mu)  ||d||  lg(rg) alpha_du alpha_pr  ls
  30r8.5234202e+000 2.37e+003 9.99e+002   1.7 0.00e+000    -  0.00e+000 2.76e-007R  2
  31r9.5868826e+000 9.11e+002 9.98e+002   0.2 3.13e+004    -  8.88e-004 1.69e-003f  1
  32 9.6001875e+000 9.11e+002 9.85e+002   1.3 1.30e+002    -  8.63e-002 2.64e-004f  1
  33 9.6119261e+000 9.11e+002 7.92e+003  -5.1 3.77e+002    -  4.74e-003 4.88e-004h  1
  34 9.6134864e+000 9.11e+002 2.08e+004  -5.1 4.04e+002    -  1.65e-004 6.42e-005h  1
  35 9.6909623e+000 9.11e+002 8.53e+003   2.9 1.49e+004    -  1.13e-006 8.13e-005f  1
  36r9.6909623e+000 9.11e+002 9.99e+002   1.4 0.00e+000    -  0.00e+000 2.98e-007R  3
  37r1.2547350e+001 7.06e+002 1.80e+003   2.8 9.12e+003    -  7.06e-003 2.16e-003f  1
  38 1.2557445e+001 7.06e+002 2.79e+003   1.1 7.89e+001    -  1.71e-001 1.37e-004h  1
  39 1.2558635e+001 7.06e+002 9.24e+004  -5.1 1.11e+003    -  4.35e-003 9.94e-005h  1
iter    objective    inf_pr   inf_du lg(mu)  ||d||  lg(rg) alpha_du alpha_pr  ls
  40 1.2720911e+001 7.06e+002 6.65e+005   2.9 1.13e+004    -  5.94e-004 5.95e-005f  1
  41r1.2720911e+001 7.06e+002 1.00e+003   2.5 0.00e+000    -  0.00e+000 4.19e-007R  5
  42r1.6164647e+001 6.23e+002 1.51e+003   2.2 1.31e+003    -  2.56e-001 1.74e-002f  1
  43 1.6178258e+001 6.23e+002 1.09e+003   1.5 4.13e+002    -  4.94e-002 1.18e-004h  1
  44 1.6180030e+001 6.23e+002 4.35e+004  -5.1 7.68e+002    -  1.10e-002 1.95e-004h  1
  45 1.6175896e+001 6.23e+002 3.76e+005  -5.1 1.37e+004    -  1.45e-003 9.69e-005h  1
  46 1.6179206e+001 6.23e+002 1.58e+009   1.8 7.48e+002    -  2.08e-001 2.05e-005h  1
  47 1.6205364e+001 6.23e+002 6.88e+010   3.5 3.53e+003    -  5.60e-004 1.15e-005h  1
  48r1.6205364e+001 6.23e+002 1.00e+003   3.8 0.00e+000    -  0.00e+000 3.11e-007R  3
  49r1.6817987e+001 1.23e+003 1.34e+004  -2.5 2.61e+001    -  4.35e-001 4.84e-001f  1
iter    objective    inf_pr   inf_du lg(mu)  ||d||  lg(rg) alpha_du alpha_pr  ls
  50r1.6833965e+001 4.52e+002 5.10e+003   1.1 3.25e-001   4.0 9.55e-001 1.00e+000f  1
  51r1.6834133e+001 2.36e+002 4.03e+004   0.0 3.13e-001   3.5 9.92e-001 6.50e-001f  1
  52r1.6827731e+001 8.64e+001 1.01e+003  -0.4 9.08e-001   3.0 1.00e+000 1.00e+000f  1
  53r1.6826253e+001 7.67e+001 1.01e+003  -1.6 2.72e+000   2.6 1.00e+000 1.20e-001f  1
  54r1.6824120e+001 7.11e+001 9.97e+002  -1.6 8.10e+000   2.1 1.00e+000 7.67e-002f  1
  55r1.6820607e+001 5.89e+001 9.94e+002  -1.1 3.07e+000   2.5 1.00e+000 1.85e-001f  1
  56r1.6823094e+001 1.59e+005 1.27e+006  -0.4 8.48e+000   2.0 1.00e+000 6.54e-002f  1
  57r1.6839899e+001 1.16e+008 1.82e+010   1.7 4.03e+000   2.5 4.35e-001 1.10e-001f  1
  58r1.6898111e+001 6.10e+007 9.54e+009   2.3 3.44e+000   2.0 1.00e+000 6.43e-001f  1
  59r2.4679300e+001 2.25e+007 3.51e+009   2.2 8.99e+000    -  9.60e-001 1.00e+000f  1
iter    objective    inf_pr   inf_du lg(mu)  ||d||  lg(rg) alpha_du alpha_pr  ls
  60r3.4867730e+001 9.24e+006 1.44e+009   1.1 1.15e+001    -  7.59e-001 8.88e-001f  1
  61r4.4561885e+001 3.40e+006 5.31e+008   1.1 9.69e+000    -  8.94e-001 1.00e+000f  1
  62r4.8309523e+001 1.96e+006 3.07e+008   1.7 9.06e+001    -  8.09e-001 5.50e-001f  1
  63r4.2701632e+001 7.21e+005 1.13e+008   1.5 2.05e+001    -  1.00e+000 1.00e+000f  1
  64r4.8602571e+001 2.65e+005 4.15e+007   1.2 5.90e+000    -  1.00e+000 1.00e+000f  1
  65r4.6744480e+001 9.76e+004 1.53e+007   1.5 8.57e+000    -  1.00e+000 1.00e+000f  1
  66r5.0796785e+001 3.59e+004 5.62e+006   1.0 6.66e+000    -  1.00e+000 1.00e+000f  1
  67r5.0418772e+001 2.40e+004 3.76e+006   1.7 2.93e+000   1.5 3.14e-001 4.00e-001f  1
  68r4.7811184e+001 2.11e+004 3.31e+006   1.7 2.03e+001    -  7.11e-001 1.28e-001f  1
  69r4.4475194e+001 9.51e+003 1.49e+006   1.2 4.18e+000    -  1.00e+000 7.98e-001f  1
iter    objective    inf_pr   inf_du lg(mu)  ||d||  lg(rg) alpha_du alpha_pr  ls
  70r4.5052862e+001 4.65e+003 7.31e+005   1.2 1.73e+000   1.0 1.00e+000 7.12e-001f  1
  71r5.3174767e+001 1.69e+003 2.69e+005   1.2 8.12e+000    -  6.58e-001 1.00e+000f  1
  72r6.0418952e+001 8.86e+002 1.43e+005  -4.8 1.15e+001    -  3.55e-001 6.30e-001f  1
  73r6.0507896e+001 3.05e+002 5.28e+004   0.4 8.89e-002   2.4 1.00e+000 1.00e+000f  1
  74r6.0834572e+001 1.09e+002 2.12e+004  -0.1 3.63e-001   1.9 1.00e+000 9.01e-001f  1
  75r6.0976210e+001 3.94e+001 8.89e+003  -0.3 1.76e-001   2.3 1.00e+000 8.03e-001f  1
  76r6.1037292e+001 1.26e+001 3.34e+003  -0.9 7.81e-002   2.7 1.00e+000 7.83e-001f  1
  77 6.3337794e+001 1.18e+001 7.02e+000  -0.2 3.68e+001    -  6.21e-001 6.25e-002h  5
  78 1.1361859e+002 3.99e+000 5.65e+001  -0.5 3.35e+001    -  7.74e-001 1.00e+000H  1
  79 6.5250321e+001 6.53e+000 1.24e+001  -0.4 4.84e+001    -  8.57e-001 1.00e+000f  1
iter    objective    inf_pr   inf_du lg(mu)  ||d||  lg(rg) alpha_du alpha_pr  ls
  80 4.8379957e+001 2.23e+000 6.64e+000  -0.5 1.69e+001    -  9.92e-001 1.00e+000f  1
  81 2.0898452e+001 4.85e+000 4.34e+000  -1.1 2.75e+001    -  9.94e-001 1.00e+000f  1
  82 2.0898451e-001 6.92e+000 3.26e+000  -1.8 2.12e+001    -  9.98e-001 9.76e-001f  1
  83 6.8595695e+000 4.18e-001 2.61e+003  -1.4 6.65e+000   2.4 1.00e+000 1.00e+000h  1
  84 6.8743031e+000 6.87e-003 5.02e+002  -2.6 5.93e-002   2.0 1.00e+000 1.00e+000h  1
  85 6.8733777e+000 1.28e-005 4.85e-001  -4.2 1.84e-003   1.5 1.00e+000 1.00e+000h  1
  86 6.8708104e+000 7.77e-004 4.93e-002  -5.9 4.70e-003   1.0 1.00e+000 1.00e+000h  1
  87 6.8637046e+000 3.87e-003 3.71e-002  -7.6 1.07e-002   0.5 1.00e+000 1.00e+000h  1
  88 6.8447989e+000 8.02e-003 2.30e-002  -9.3 2.02e-002   0.1 1.00e+000 1.00e+000h  1
  89 6.7925440e+000 2.90e-003 2.28e-002 -11.0 6.00e-002  -0.4 1.00e+000 1.00e+000h  1
iter    objective    inf_pr   inf_du lg(mu)  ||d||  lg(rg) alpha_du alpha_pr  ls
  90 6.6419702e+000 2.64e-002 4.04e-002 -11.0 1.74e-001  -0.9 1.00e+000 1.00e+000f  1
  91 6.2212336e+000 3.40e-001 2.50e-001 -11.0 4.83e-001  -1.4 1.00e+000 1.00e+000f  1
  92 6.0487630e+000 5.28e-001 2.20e+000 -11.0 2.84e-001  -0.9 1.00e+000 1.00e+000h  1
  93 5.9234516e+000 8.68e-001 7.53e-001 -11.0 4.38e-001  -0.5 1.00e+000 1.00e+000h  1
  94 5.8755756e+000 5.72e-001 5.42e-001  -9.0 2.57e-001  -1.0 1.00e+000 4.30e-001h  1
  95 5.8737174e+000 5.69e-001 5.39e-001  -7.0 3.70e-001  -1.5 1.00e+000 5.52e-003h  1
  96 4.9467555e+000 1.21e-001 5.23e+000  -6.4 9.60e-001  -2.0 1.00e+000 1.00e+000f  1
  97 4.8483020e+000 1.17e-001 4.97e+000  -4.4 9.71e+000  -2.4 1.66e-001 3.93e-002h  1
  98 4.7903244e+000 1.08e-001 4.58e+000  -4.1 1.18e+000  -2.0 1.00e+000 7.48e-002h  1
  99 4.6738659e+000 6.35e-002 2.35e+000  -4.1 4.24e-001  -1.6 1.00e+000 4.29e-001h  1
iter    objective    inf_pr   inf_du lg(mu)  ||d||  lg(rg) alpha_du alpha_pr  ls
 100 4.3601988e+000 4.42e-002 1.30e+000  -4.2 1.03e+000  -2.1 1.00e+000 3.91e-001h  1
 101 4.1017924e+000 1.40e-002 1.69e-001  -3.9 3.95e-001  -1.6 1.00e+000 9.70e-001h  1
 102 3.8128258e+000 1.94e-002 1.71e-001  -4.2 9.73e-001  -2.1 9.99e-001 4.20e-001f  1
 103 3.5525810e+000 2.33e-002 2.19e-001  -4.8 2.42e+000  -2.6 1.00e+000 1.87e-001f  1
 104 3.0577766e+000 4.57e-002 2.87e-001  -4.5 5.34e+000  -3.1 1.00e+000 2.15e-001f  1
 105 2.7597415e+000 5.38e-002 3.17e-001  -4.2 8.12e+000  -3.5 1.00e+000 1.15e-001f  1
 106 2.3971870e+000 6.95e-002 2.99e-001  -3.8 1.31e+001  -4.0 1.00e+000 1.42e-001f  1
 107 2.2029322e+000 5.73e-002 3.02e-001  -4.0 1.79e+000  -2.7 1.00e+000 3.51e-001h  1
 108 1.9973583e+000 5.76e-002 2.54e-001  -4.3 3.14e+000  -3.2 1.00e+000 2.44e-001h  1
 109 1.6857647e+000 7.84e-002 1.71e-001  -4.0 5.89e+000  -3.6 1.00e+000 3.28e-001h  1
iter    objective    inf_pr   inf_du lg(mu)  ||d||  lg(rg) alpha_du alpha_pr  ls
 110 1.4664566e+000 8.54e-002 5.42e-001  -3.5 1.28e+001  -4.1 1.00e+000 3.46e-001h  1
 111 1.1592561e+000 1.17e-001 1.60e-001  -3.5 4.56e+000  -4.6 1.00e+000 8.30e-001h  1
 112 7.1112930e-001 7.85e-001 1.39e-001  -3.8 2.90e+001    -  7.35e-001 4.87e-001h  1
 113 6.9789499e-001 2.28e-001 3.86e-002  -3.8 4.09e+000  -5.1 1.00e+000 1.00e+000h  1
 114 5.1155658e-001 3.90e-001 6.52e-002  -4.0 7.17e+000  -5.5 1.00e+000 1.00e+000h  1
 115 3.5939684e-001 5.79e-001 4.29e-002  -4.3 9.92e+000  -6.0 1.00e+000 1.00e+000h  1
 116 3.1631444e-001 3.78e-001 1.01e-002  -4.4 1.10e+001  -6.5 1.00e+000 1.00e+000h  1
 117 3.1856055e-001 8.91e-002 2.03e-003  -4.4 2.47e+000  -6.1 1.00e+000 1.00e+000h  1
 118 2.9409787e-001 1.33e-001 2.22e-003  -4.6 1.35e+001    -  8.61e-001 1.00e+000h  1
 119 2.6722914e-001 1.47e-001 5.69e-003  -5.1 1.13e+001    -  9.99e-001 1.00e+000h  1
iter    objective    inf_pr   inf_du lg(mu)  ||d||  lg(rg) alpha_du alpha_pr  ls
 120 2.6248136e-001 3.17e-002 1.81e-003  -5.2 1.48e+001    -  1.00e+000 1.00e+000h  1
 121 2.5897322e-001 8.03e-003 5.05e-004  -5.4 1.29e+001    -  1.00e+000 1.00e+000h  1
 122 2.5513474e-001 9.21e-003 3.56e-004  -5.8 4.44e+000  -6.6 9.93e-001 1.00e+000h  1
 123 2.5735965e-001 3.26e-003 8.69e-004  -5.5 4.69e+000    -  1.00e+000 1.00e+000h  1
 124 2.6147507e-001 9.14e-003 3.27e-004  -5.3 7.11e+000  -7.0 1.00e+000 1.00e+000h  1
 125 2.5970044e-001 1.85e-003 7.19e-005  -5.4 4.52e+000    -  1.00e+000 1.00e+000h  1
 126 2.5967510e-001 2.36e-003 5.07e-004  -5.4 1.35e+001    -  1.00e+000 6.34e-001h  1
 127 2.5366271e-001 2.20e-002 8.43e-004  -6.0 5.41e+000    -  9.90e-001 1.00e+000h  1
 128 2.5335798e-001 3.30e-003 3.86e-004  -6.1 3.91e+000    -  1.00e+000 1.00e+000h  1
 129 2.5234513e-001 3.21e-003 6.77e-004  -6.8 3.83e+000    -  1.00e+000 1.00e+000h  1
iter    objective    inf_pr   inf_du lg(mu)  ||d||  lg(rg) alpha_du alpha_pr  ls
 130 2.5221483e-001 6.35e-004 1.96e-004  -7.2 1.53e+000    -  9.99e-001 1.00e+000h  1
 131 2.5215611e-001 1.88e-004 7.03e-005  -7.7 1.12e+000    -  1.00e+000 1.00e+000h  1
 132 2.5214603e-001 3.41e-005 3.08e-006  -7.8 6.02e-001    -  1.00e+000 1.00e+000h  1
 133 2.5212993e-001 2.09e-005 2.75e-006  -8.4 4.91e-001    -  9.99e-001 1.00e+000h  1
 134 2.5212734e-001 3.88e-006 3.41e-007  -8.8 2.87e-001    -  1.00e+000 1.00e+000h  1
 135 2.5212610e-001 7.45e-007 3.26e-006  -9.0 1.63e-001    -  9.84e-001 1.00e+000h  1
 136 2.5212494e-001 5.23e-007 6.47e-008 -10.0 1.54e-001    -  1.00e+000 1.00e+000h  1

Number of Iterations....: 136

                                   (scaled)                 (unscaled)
Objective...............:  2.5212493848936013e-001   2.5212493848936013e-001
Dual infeasibility......:  6.4714309147800052e-008   6.4714309147800052e-008
Constraint violation....:  2.4293521044275002e-007   5.2281519025143552e-007
Complementarity.........:  3.4234317618746038e-010   3.4234317618746038e-010
Overall NLP error.......:  2.4293521044275002e-007   5.2281519025143552e-007


Number of objective function evaluations             = 181
Number of objective gradient evaluations             = 110
Number of equality constraint evaluations            = 183
Number of inequality constraint evaluations          = 183
Number of equality constraint Jacobian evaluations   = 143
Number of inequality constraint Jacobian evaluations = 143
Number of Lagrangian Hessian evaluations             = 136
Total CPU secs in IPOPT (w/o function evaluations)   =      8.289
Total CPU secs in NLP function evaluations           =      3.429

EXIT: Optimal Solution Found.
